Nb of jobs, Nb of Machines, Time seed, Machine seed, Upper bound, Lower bound
8,8,-1,-1,-1,-1
Times
45,95,77,88,42,46,41,38
20,52,85,70,38,97,33,32
95,67,73,26,39,16,13,46
11,85,85,16,39,29,79,92
8,33,23,19,42,38,13,4
69,93,68,90,73,17,48,86
91,20,39,67,89,84,7,55
70,59,69,48,4,78,87,88
Machines
2,8,4,3,7,6,5,1
8,5,6,4,7,2,3,1
8,2,7,6,1,3,4,5
5,1,3,6,2,7,4,8
7,3,1,8,5,2,4,6
6,5,3,7,8,1,2,4
1,4,5,6,8,2,3,7
2,4,8,7,6,5,1,3
